7
75
80
9
33
58
60
72
28
45
81
83
8
48
74
39
68
21
87
67
26
97
18
1
89
65
11
59
82
34
12
5
22
66
30
38
31
37
24
50
35
52
54
13
43
51
17
85
94
14
88
56
84
91
25
64
79
2
61
98
57
10
15
40
77
95
96
62
27
19
6
32
90
73
36
29
49
78
69
92
71
41
93
70
4
47
53
0
42
44
76
46
3
99
63
16
55
86
20
23
